
  22   10
  10   10   10   10   10   10   10   10   10   10

   0   0   0   0   0   0   0   0   0   0   0   2 2 3 
   2  10  10  10  10  10  10  10  10  10  10   2 6 5 
   7  10  10  10  10  10  10  10  10  10  10   2 8 4 
   5  10  10  10  10  10  10  10  10  10  10   1 6 
   4  10  10  10  10  10  10  10  10  10  10   3 13 9 8 
   4  10  10  10  10  10  10  10  10  10  10   2 11 7 
   9  10  10  10  10  10  10  10  10  10  10   2 13 9 
   4  10  10  10  10  10  10  10  10  10  10   3 15 11 10 
   4  10  10  10  10  10  10  10  10  10  10   2 15 10 
   4  10  10  10  10  10  10  10  10  10  10   2 14 12 
   9  10  10  10  10  10  10  10  10  10  10   2 14 12 
   7  10  10  10  10  10  10  10  10  10  10   4 21 18 17 16 
   4  10  10  10  10  10  10  10  10  10  10   3 21 17 16 
   1  10  10  10  10  10  10  10  10  10  10   2 21 19 
  10  10  10  10  10  10  10  10  10  10  10   1 16 
   1  10  10  10  10  10  10  10  10  10  10   1 19 
   8  10  10  10  10  10  10  10  10  10  10   1 19 
   6  10  10  10  10  10  10  10  10  10  10   1 19 
   3  10  10  10  10  10  10  10  10  10  10   1 20 
   5  10  10  10  10  10  10  10  10  10  10   1 22
   9  10  10  10  10  10  10  10  10  10  10   1 22
   0   0   0   0   0   0   0   0   0   0   0   0 
